*Heading
** Job name: Job-bukkle Model name: Model-1
** Generated by: Abaqus/CAE Learning Edition 2025
*Preprint, echo=NO, model=NO, history=NO, contact=NO
**
** PARTS
**
*Part, name=Part-1
*Node
      1,         -10.,          -5.,         200.
      2,         -10.,   1.66666663,         200.
      3,         -10.,   8.33333302,         200.
      4,         -10.,          15.,         200.
      5,         -10.,          -5.,   193.103455
      6,         -10.,   1.66666663,   193.103455
      7,         -10.,   8.33333302,   193.103455
      8,         -10.,          15.,   193.103455
      9,         -10.,          -5.,   186.206894
     10,         -10.,   1.66666663,   186.206894
     11,         -10.,   8.33333302,   186.206894
     12,         -10.,          15.,   186.206894
     13,         -10.,          -5.,   179.310349
     14,         -10.,   1.66666663,   179.310349
     15,         -10.,   8.33333302,   179.310349
     16,         -10.,          15.,   179.310349
     17,         -10.,          -5.,   172.413788
     18,         -10.,   1.66666663,   172.413788
     19,         -10.,   8.33333302,   172.413788
     20,         -10.,          15.,   172.413788
     21,         -10.,          -5.,   165.517242
     22,         -10.,   1.66666663,   165.517242
     23,         -10.,   8.33333302,   165.517242
     24,         -10.,          15.,   165.517242
     25,         -10.,          -5.,   158.620697
     26,         -10.,   1.66666663,   158.620697
     27,         -10.,   8.33333302,   158.620697
     28,         -10.,          15.,   158.620697
     29,         -10.,          -5.,   151.724136
     30,         -10.,   1.66666663,   151.724136
     31,         -10.,   8.33333302,   151.724136
     32,         -10.,          15.,   151.724136
     33,         -10.,          -5.,   144.827591
     34,         -10.,   1.66666663,   144.827591
     35,         -10.,   8.33333302,   144.827591
     36,         -10.,          15.,   144.827591
     37,         -10.,          -5.,    137.93103
     38,         -10.,   1.66666663,    137.93103
     39,         -10.,   8.33333302,    137.93103
     40,         -10.,          15.,    137.93103
     41,         -10.,          -5.,   131.034485
     42,         -10.,   1.66666663,   131.034485
     43,         -10.,   8.33333302,   131.034485
     44,         -10.,          15.,   131.034485
     45,         -10.,          -5.,   124.137932
     46,         -10.,   1.66666663,   124.137932
     47,         -10.,   8.33333302,   124.137932
     48,         -10.,          15.,   124.137932
     49,         -10.,          -5.,   117.241379
     50,         -10.,   1.66666663,   117.241379
     51,         -10.,   8.33333302,   117.241379
     52,         -10.,          15.,   117.241379
     53,         -10.,          -5.,   110.344826
     54,         -10.,   1.66666663,   110.344826
     55,         -10.,   8.33333302,   110.344826
     56,         -10.,          15.,   110.344826
     57,         -10.,          -5.,   103.448273
     58,         -10.,   1.66666663,   103.448273
     59,         -10.,   8.33333302,   103.448273
     60,         -10.,          15.,   103.448273
     61,         -10.,          -5.,   96.5517273
     62,         -10.,   1.66666663,   96.5517273
     63,         -10.,   8.33333302,   96.5517273
     64,         -10.,          15.,   96.5517273
     65,         -10.,          -5.,   89.6551743
     66,         -10.,   1.66666663,   89.6551743
     67,         -10.,   8.33333302,   89.6551743
     68,         -10.,          15.,   89.6551743
     69,         -10.,          -5.,   82.7586212
     70,         -10.,   1.66666663,   82.7586212
     71,         -10.,   8.33333302,   82.7586212
     72,         -10.,          15.,   82.7586212
     73,         -10.,          -5.,   75.8620682
     74,         -10.,   1.66666663,   75.8620682
     75,         -10.,   8.33333302,   75.8620682
     76,         -10.,          15.,   75.8620682
     77,         -10.,          -5.,   68.9655151
     78,         -10.,   1.66666663,   68.9655151
     79,         -10.,   8.33333302,   68.9655151
     80,         -10.,          15.,   68.9655151
     81,         -10.,          -5.,   62.0689659
     82,         -10.,   1.66666663,   62.0689659
     83,         -10.,   8.33333302,   62.0689659
     84,         -10.,          15.,   62.0689659
     85,         -10.,          -5.,   55.1724129
     86,         -10.,   1.66666663,   55.1724129
     87,         -10.,   8.33333302,   55.1724129
     88,         -10.,          15.,   55.1724129
     89,         -10.,          -5.,   48.2758636
     90,         -10.,   1.66666663,   48.2758636
     91,         -10.,   8.33333302,   48.2758636
     92,         -10.,          15.,   48.2758636
     93,         -10.,          -5.,   41.3793106
     94,         -10.,   1.66666663,   41.3793106
     95,         -10.,   8.33333302,   41.3793106
     96,         -10.,          15.,   41.3793106
     97,         -10.,          -5.,   34.4827576
     98,         -10.,   1.66666663,   34.4827576
     99,         -10.,   8.33333302,   34.4827576
    100,         -10.,          15.,   34.4827576
    101,         -10.,          -5.,   27.5862064
    102,         -10.,   1.66666663,   27.5862064
    103,         -10.,   8.33333302,   27.5862064
    104,         -10.,          15.,   27.5862064
    105,         -10.,          -5.,   20.6896553
    106,         -10.,   1.66666663,   20.6896553
    107,         -10.,   8.33333302,   20.6896553
    108,         -10.,          15.,   20.6896553
    109,         -10.,          -5.,   13.7931032
    110,         -10.,   1.66666663,   13.7931032
    111,         -10.,   8.33333302,   13.7931032
    112,         -10.,          15.,   13.7931032
    113,         -10.,          -5.,   6.89655161
    114,         -10.,   1.66666663,   6.89655161
    115,         -10.,   8.33333302,   6.89655161
    116,         -10.,          15.,   6.89655161
    117,         -10.,          -5.,           0.
    118,         -10.,   1.66666663,           0.
    119,         -10.,   8.33333302,           0.
    120,         -10.,          15.,           0.
    121,  -3.33333325,          -5.,         200.
    122,  -3.33333325,   1.66666663,         200.
    123,  -3.33333325,   8.33333302,         200.
    124,  -3.33333325,          15.,         200.
    125,  -3.33333325,          -5.,   193.103455
    126,  -3.33333325,   1.66666663,   193.103455
    127,  -3.33333325,   8.33333302,   193.103455
    128,  -3.33333325,          15.,   193.103455
    129,  -3.33333325,          -5.,   186.206894
    130,  -3.33333325,   1.66666663,   186.206894
    131,  -3.33333325,   8.33333302,   186.206894
    132,  -3.33333325,          15.,   186.206894
    133,  -3.33333325,          -5.,   179.310349
    134,  -3.33333325,   1.66666663,   179.310349
    135,  -3.33333325,   8.33333302,   179.310349
    136,  -3.33333325,          15.,   179.310349
    137,  -3.33333325,          -5.,   172.413788
    138,  -3.33333325,   1.66666663,   172.413788
    139,  -3.33333325,   8.33333302,   172.413788
    140,  -3.33333325,          15.,   172.413788
    141,  -3.33333325,          -5.,   165.517242
    142,  -3.33333325,   1.66666663,   165.517242
    143,  -3.33333325,   8.33333302,   165.517242
    144,  -3.33333325,          15.,   165.517242
    145,  -3.33333325,          -5.,   158.620697
    146,  -3.33333325,   1.66666663,   158.620697
    147,  -3.33333325,   8.33333302,   158.620697
    148,  -3.33333325,          15.,   158.620697
    149,  -3.33333325,          -5.,   151.724136
    150,  -3.33333325,   1.66666663,   151.724136
    151,  -3.33333325,   8.33333302,   151.724136
    152,  -3.33333325,          15.,   151.724136
    153,  -3.33333325,          -5.,   144.827591
    154,  -3.33333325,   1.66666663,   144.827591
    155,  -3.33333325,   8.33333302,   144.827591
    156,  -3.33333325,          15.,   144.827591
    157,  -3.33333325,          -5.,    137.93103
    158,  -3.33333325,   1.66666663,    137.93103
    159,  -3.33333325,   8.33333302,    137.93103
    160,  -3.33333325,          15.,    137.93103
    161,  -3.33333325,          -5.,   131.034485
    162,  -3.33333325,   1.66666663,   131.034485
    163,  -3.33333325,   8.33333302,   131.034485
    164,  -3.33333325,          15.,   131.034485
    165,  -3.33333325,          -5.,   124.137932
    166,  -3.33333325,   1.66666663,   124.137932
    167,  -3.33333325,   8.33333302,   124.137932
    168,  -3.33333325,          15.,   124.137932
    169,  -3.33333325,          -5.,   117.241379
    170,  -3.33333325,   1.66666663,   117.241379
    171,  -3.33333325,   8.33333302,   117.241379
    172,  -3.33333325,          15.,   117.241379
    173,  -3.33333325,          -5.,   110.344826
    174,  -3.33333325,   1.66666663,   110.344826
    175,  -3.33333325,   8.33333302,   110.344826
    176,  -3.33333325,          15.,   110.344826
    177,  -3.33333325,          -5.,   103.448273
    178,  -3.33333325,   1.66666663,   103.448273
    179,  -3.33333325,   8.33333302,   103.448273
    180,  -3.33333325,          15.,   103.448273
    181,  -3.33333325,          -5.,   96.5517273
    182,  -3.33333325,   1.66666663,   96.5517273
    183,  -3.33333325,   8.33333302,   96.5517273
    184,  -3.33333325,          15.,   96.5517273
    185,  -3.33333325,          -5.,   89.6551743
    186,  -3.33333325,   1.66666663,   89.6551743
    187,  -3.33333325,   8.33333302,   89.6551743
    188,  -3.33333325,          15.,   89.6551743
    189,  -3.33333325,          -5.,   82.7586212
    190,  -3.33333325,   1.66666663,   82.7586212
    191,  -3.33333325,   8.33333302,   82.7586212
    192,  -3.33333325,          15.,   82.7586212
    193,  -3.33333325,          -5.,   75.8620682
    194,  -3.33333325,   1.66666663,   75.8620682
    195,  -3.33333325,   8.33333302,   75.8620682
    196,  -3.33333325,          15.,   75.8620682
    197,  -3.33333325,          -5.,   68.9655151
    198,  -3.33333325,   1.66666663,   68.9655151
    199,  -3.33333325,   8.33333302,   68.9655151
    200,  -3.33333325,          15.,   68.9655151
    201,  -3.33333325,          -5.,   62.0689659
    202,  -3.33333325,   1.66666663,   62.0689659
    203,  -3.33333325,   8.33333302,   62.0689659
    204,  -3.33333325,          15.,   62.0689659
    205,  -3.33333325,          -5.,   55.1724129
    206,  -3.33333325,   1.66666663,   55.1724129
    207,  -3.33333325,   8.33333302,   55.1724129
    208,  -3.33333325,          15.,   55.1724129
    209,  -3.33333325,          -5.,   48.2758636
    210,  -3.33333325,   1.66666663,   48.2758636
    211,  -3.33333325,   8.33333302,   48.2758636
    212,  -3.33333325,          15.,   48.2758636
    213,  -3.33333325,          -5.,   41.3793106
    214,  -3.33333325,   1.66666663,   41.3793106
    215,  -3.33333325,   8.33333302,   41.3793106
    216,  -3.33333325,          15.,   41.3793106
    217,  -3.33333325,          -5.,   34.4827576
    218,  -3.33333325,   1.66666663,   34.4827576
    219,  -3.33333325,   8.33333302,   34.4827576
    220,  -3.33333325,          15.,   34.4827576
    221,  -3.33333325,          -5.,   27.5862064
    222,  -3.33333325,   1.66666663,   27.5862064
    223,  -3.33333325,   8.33333302,   27.5862064
    224,  -3.33333325,          15.,   27.5862064
    225,  -3.33333325,          -5.,   20.6896553
    226,  -3.33333325,   1.66666663,   20.6896553
    227,  -3.33333325,   8.33333302,   20.6896553
    228,  -3.33333325,          15.,   20.6896553
    229,  -3.33333325,          -5.,   13.7931032
    230,  -3.33333325,   1.66666663,   13.7931032
    231,  -3.33333325,   8.33333302,   13.7931032
    232,  -3.33333325,          15.,   13.7931032
    233,  -3.33333325,          -5.,   6.89655161
    234,  -3.33333325,   1.66666663,   6.89655161
    235,  -3.33333325,   8.33333302,   6.89655161
    236,  -3.33333325,          15.,   6.89655161
    237,  -3.33333325,          -5.,           0.
    238,  -3.33333325,   1.66666663,           0.
    239,  -3.33333325,   8.33333302,           0.
    240,  -3.33333325,          15.,           0.
    241,   3.33333325,          -5.,         200.
    242,   3.33333325,   1.66666663,         200.
    243,   3.33333325,   8.33333302,         200.
    244,   3.33333325,          15.,         200.
    245,   3.33333325,          -5.,   193.103455
    246,   3.33333325,   1.66666663,   193.103455
    247,   3.33333325,   8.33333302,   193.103455
    248,   3.33333325,          15.,   193.103455
    249,   3.33333325,          -5.,   186.206894
    250,   3.33333325,   1.66666663,   186.206894
    251,   3.33333325,   8.33333302,   186.206894
    252,   3.33333325,          15.,   186.206894
    253,   3.33333325,          -5.,   179.310349
    254,   3.33333325,   1.66666663,   179.310349
    255,   3.33333325,   8.33333302,   179.310349
    256,   3.33333325,          15.,   179.310349
    257,   3.33333325,          -5.,   172.413788
    258,   3.33333325,   1.66666663,   172.413788
    259,   3.33333325,   8.33333302,   172.413788
    260,   3.33333325,          15.,   172.413788
    261,   3.33333325,          -5.,   165.517242
    262,   3.33333325,   1.66666663,   165.517242
    263,   3.33333325,   8.33333302,   165.517242
    264,   3.33333325,          15.,   165.517242
    265,   3.33333325,          -5.,   158.620697
    266,   3.33333325,   1.66666663,   158.620697
    267,   3.33333325,   8.33333302,   158.620697
    268,   3.33333325,          15.,   158.620697
    269,   3.33333325,          -5.,   151.724136
    270,   3.33333325,   1.66666663,   151.724136
    271,   3.33333325,   8.33333302,   151.724136
    272,   3.33333325,          15.,   151.724136
    273,   3.33333325,          -5.,   144.827591
    274,   3.33333325,   1.66666663,   144.827591
    275,   3.33333325,   8.33333302,   144.827591
    276,   3.33333325,          15.,   144.827591
    277,   3.33333325,          -5.,    137.93103
    278,   3.33333325,   1.66666663,    137.93103
    279,   3.33333325,   8.33333302,    137.93103
    280,   3.33333325,          15.,    137.93103
    281,   3.33333325,          -5.,   131.034485
    282,   3.33333325,   1.66666663,   131.034485
    283,   3.33333325,   8.33333302,   131.034485
    284,   3.33333325,          15.,   131.034485
    285,   3.33333325,          -5.,   124.137932
    286,   3.33333325,   1.66666663,   124.137932
    287,   3.33333325,   8.33333302,   124.137932
    288,   3.33333325,          15.,   124.137932
    289,   3.33333325,          -5.,   117.241379
    290,   3.33333325,   1.66666663,   117.241379
    291,   3.33333325,   8.33333302,   117.241379
    292,   3.33333325,          15.,   117.241379
    293,   3.33333325,          -5.,   110.344826
    294,   3.33333325,   1.66666663,   110.344826
    295,   3.33333325,   8.33333302,   110.344826
    296,   3.33333325,          15.,   110.344826
    297,   3.33333325,          -5.,   103.448273
    298,   3.33333325,   1.66666663,   103.448273
    299,   3.33333325,   8.33333302,   103.448273
    300,   3.33333325,          15.,   103.448273
    301,   3.33333325,          -5.,   96.5517273
    302,   3.33333325,   1.66666663,   96.5517273
    303,   3.33333325,   8.33333302,   96.5517273
    304,   3.33333325,          15.,   96.5517273
    305,   3.33333325,          -5.,   89.6551743
    306,   3.33333325,   1.66666663,   89.6551743
    307,   3.33333325,   8.33333302,   89.6551743
    308,   3.33333325,          15.,   89.6551743
    309,   3.33333325,          -5.,   82.7586212
    310,   3.33333325,   1.66666663,   82.7586212
    311,   3.33333325,   8.33333302,   82.7586212
    312,   3.33333325,          15.,   82.7586212
    313,   3.33333325,          -5.,   75.8620682
    314,   3.33333325,   1.66666663,   75.8620682
    315,   3.33333325,   8.33333302,   75.8620682
    316,   3.33333325,          15.,   75.8620682
    317,   3.33333325,          -5.,   68.9655151
    318,   3.33333325,   1.66666663,   68.9655151
    319,   3.33333325,   8.33333302,   68.9655151
    320,   3.33333325,          15.,   68.9655151
    321,   3.33333325,          -5.,   62.0689659
    322,   3.33333325,   1.66666663,   62.0689659
    323,   3.33333325,   8.33333302,   62.0689659
    324,   3.33333325,          15.,   62.0689659
    325,   3.33333325,          -5.,   55.1724129
    326,   3.33333325,   1.66666663,   55.1724129
    327,   3.33333325,   8.33333302,   55.1724129
    328,   3.33333325,          15.,   55.1724129
    329,   3.33333325,          -5.,   48.2758636
    330,   3.33333325,   1.66666663,   48.2758636
    331,   3.33333325,   8.33333302,   48.2758636
    332,   3.33333325,          15.,   48.2758636
    333,   3.33333325,          -5.,   41.3793106
    334,   3.33333325,   1.66666663,   41.3793106
    335,   3.33333325,   8.33333302,   41.3793106
    336,   3.33333325,          15.,   41.3793106
    337,   3.33333325,          -5.,   34.4827576
    338,   3.33333325,   1.66666663,   34.4827576
    339,   3.33333325,   8.33333302,   34.4827576
    340,   3.33333325,          15.,   34.4827576
    341,   3.33333325,          -5.,   27.5862064
    342,   3.33333325,   1.66666663,   27.5862064
    343,   3.33333325,   8.33333302,   27.5862064
    344,   3.33333325,          15.,   27.5862064
    345,   3.33333325,          -5.,   20.6896553
    346,   3.33333325,   1.66666663,   20.6896553
    347,   3.33333325,   8.33333302,   20.6896553
    348,   3.33333325,          15.,   20.6896553
    349,   3.33333325,          -5.,   13.7931032
    350,   3.33333325,   1.66666663,   13.7931032
    351,   3.33333325,   8.33333302,   13.7931032
    352,   3.33333325,          15.,   13.7931032
    353,   3.33333325,          -5.,   6.89655161
    354,   3.33333325,   1.66666663,   6.89655161
    355,   3.33333325,   8.33333302,   6.89655161
    356,   3.33333325,          15.,   6.89655161
    357,   3.33333325,          -5.,           0.
    358,   3.33333325,   1.66666663,           0.
    359,   3.33333325,   8.33333302,           0.
    360,   3.33333325,          15.,           0.
    361,          10.,          -5.,         200.
    362,          10.,   1.66666663,         200.
    363,          10.,   8.33333302,         200.
    364,          10.,          15.,         200.
    365,          10.,          -5.,   193.103455
    366,          10.,   1.66666663,   193.103455
    367,          10.,   8.33333302,   193.103455
    368,          10.,          15.,   193.103455
    369,          10.,          -5.,   186.206894
    370,          10.,   1.66666663,   186.206894
    371,          10.,   8.33333302,   186.206894
    372,          10.,          15.,   186.206894
    373,          10.,          -5.,   179.310349
    374,          10.,   1.66666663,   179.310349
    375,          10.,   8.33333302,   179.310349
    376,          10.,          15.,   179.310349
    377,          10.,          -5.,   172.413788
    378,          10.,   1.66666663,   172.413788
    379,          10.,   8.33333302,   172.413788
    380,          10.,          15.,   172.413788
    381,          10.,          -5.,   165.517242
    382,          10.,   1.66666663,   165.517242
    383,          10.,   8.33333302,   165.517242
    384,          10.,          15.,   165.517242
    385,          10.,          -5.,   158.620697
    386,          10.,   1.66666663,   158.620697
    387,          10.,   8.33333302,   158.620697
    388,          10.,          15.,   158.620697
    389,          10.,          -5.,   151.724136
    390,          10.,   1.66666663,   151.724136
    391,          10.,   8.33333302,   151.724136
    392,          10.,          15.,   151.724136
    393,          10.,          -5.,   144.827591
    394,          10.,   1.66666663,   144.827591
    395,          10.,   8.33333302,   144.827591
    396,          10.,          15.,   144.827591
    397,          10.,          -5.,    137.93103
    398,          10.,   1.66666663,    137.93103
    399,          10.,   8.33333302,    137.93103
    400,          10.,          15.,    137.93103
    401,          10.,          -5.,   131.034485
    402,          10.,   1.66666663,   131.034485
    403,          10.,   8.33333302,   131.034485
    404,          10.,          15.,   131.034485
    405,          10.,          -5.,   124.137932
    406,          10.,   1.66666663,   124.137932
    407,          10.,   8.33333302,   124.137932
    408,          10.,          15.,   124.137932
    409,          10.,          -5.,   117.241379
    410,          10.,   1.66666663,   117.241379
    411,          10.,   8.33333302,   117.241379
    412,          10.,          15.,   117.241379
    413,          10.,          -5.,   110.344826
    414,          10.,   1.66666663,   110.344826
    415,          10.,   8.33333302,   110.344826
    416,          10.,          15.,   110.344826
    417,          10.,          -5.,   103.448273
    418,          10.,   1.66666663,   103.448273
    419,          10.,   8.33333302,   103.448273
    420,          10.,          15.,   103.448273
    421,          10.,          -5.,   96.5517273
    422,          10.,   1.66666663,   96.5517273
    423,          10.,   8.33333302,   96.5517273
    424,          10.,          15.,   96.5517273
    425,          10.,          -5.,   89.6551743
    426,          10.,   1.66666663,   89.6551743
    427,          10.,   8.33333302,   89.6551743
    428,          10.,          15.,   89.6551743
    429,          10.,          -5.,   82.7586212
    430,          10.,   1.66666663,   82.7586212
    431,          10.,   8.33333302,   82.7586212
    432,          10.,          15.,   82.7586212
    433,          10.,          -5.,   75.8620682
    434,          10.,   1.66666663,   75.8620682
    435,          10.,   8.33333302,   75.8620682
    436,          10.,          15.,   75.8620682
    437,          10.,          -5.,   68.9655151
    438,          10.,   1.66666663,   68.9655151
    439,          10.,   8.33333302,   68.9655151
    440,          10.,          15.,   68.9655151
    441,          10.,          -5.,   62.0689659
    442,          10.,   1.66666663,   62.0689659
    443,          10.,   8.33333302,   62.0689659
    444,          10.,          15.,   62.0689659
    445,          10.,          -5.,   55.1724129
    446,          10.,   1.66666663,   55.1724129
    447,          10.,   8.33333302,   55.1724129
    448,          10.,          15.,   55.1724129
    449,          10.,          -5.,   48.2758636
    450,          10.,   1.66666663,   48.2758636
    451,          10.,   8.33333302,   48.2758636
    452,          10.,          15.,   48.2758636
    453,          10.,          -5.,   41.3793106
    454,          10.,   1.66666663,   41.3793106
    455,          10.,   8.33333302,   41.3793106
    456,          10.,          15.,   41.3793106
    457,          10.,          -5.,   34.4827576
    458,          10.,   1.66666663,   34.4827576
    459,          10.,   8.33333302,   34.4827576
    460,          10.,          15.,   34.4827576
    461,          10.,          -5.,   27.5862064
    462,          10.,   1.66666663,   27.5862064
    463,          10.,   8.33333302,   27.5862064
    464,          10.,          15.,   27.5862064
    465,          10.,          -5.,   20.6896553
    466,          10.,   1.66666663,   20.6896553
    467,          10.,   8.33333302,   20.6896553
    468,          10.,          15.,   20.6896553
    469,          10.,          -5.,   13.7931032
    470,          10.,   1.66666663,   13.7931032
    471,          10.,   8.33333302,   13.7931032
    472,          10.,          15.,   13.7931032
    473,          10.,          -5.,   6.89655161
    474,          10.,   1.66666663,   6.89655161
    475,          10.,   8.33333302,   6.89655161
    476,          10.,          15.,   6.89655161
    477,          10.,          -5.,           0.
    478,          10.,   1.66666663,           0.
    479,          10.,   8.33333302,           0.
    480,          10.,          15.,           0.
*Element, type=C3D8R
  1, 121, 122, 126, 125,   1,   2,   6,   5
  2, 122, 123, 127, 126,   2,   3,   7,   6
  3, 123, 124, 128, 127,   3,   4,   8,   7
  4, 125, 126, 130, 129,   5,   6,  10,   9
  5, 126, 127, 131, 130,   6,   7,  11,  10
  6, 127, 128, 132, 131,   7,   8,  12,  11
  7, 129, 130, 134, 133,   9,  10,  14,  13
  8, 130, 131, 135, 134,  10,  11,  15,  14
  9, 131, 132, 136, 135,  11,  12,  16,  15
 10, 133, 134, 138, 137,  13,  14,  18,  17
 11, 134, 135, 139, 138,  14,  15,  19,  18
 12, 135, 136, 140, 139,  15,  16,  20,  19
 13, 137, 138, 142, 141,  17,  18,  22,  21
 14, 138, 139, 143, 142,  18,  19,  23,  22
 15, 139, 140, 144, 143,  19,  20,  24,  23
 16, 141, 142, 146, 145,  21,  22,  26,  25
 17, 142, 143, 147, 146,  22,  23,  27,  26
 18, 143, 144, 148, 147,  23,  24,  28,  27
 19, 145, 146, 150, 149,  25,  26,  30,  29
 20, 146, 147, 151, 150,  26,  27,  31,  30
 21, 147, 148, 152, 151,  27,  28,  32,  31
 22, 149, 150, 154, 153,  29,  30,  34,  33
 23, 150, 151, 155, 154,  30,  31,  35,  34
 24, 151, 152, 156, 155,  31,  32,  36,  35
 25, 153, 154, 158, 157,  33,  34,  38,  37
 26, 154, 155, 159, 158,  34,  35,  39,  38
 27, 155, 156, 160, 159,  35,  36,  40,  39
 28, 157, 158, 162, 161,  37,  38,  42,  41
 29, 158, 159, 163, 162,  38,  39,  43,  42
 30, 159, 160, 164, 163,  39,  40,  44,  43
 31, 161, 162, 166, 165,  41,  42,  46,  45
 32, 162, 163, 167, 166,  42,  43,  47,  46
 33, 163, 164, 168, 167,  43,  44,  48,  47
 34, 165, 166, 170, 169,  45,  46,  50,  49
 35, 166, 167, 171, 170,  46,  47,  51,  50
 36, 167, 168, 172, 171,  47,  48,  52,  51
 37, 169, 170, 174, 173,  49,  50,  54,  53
 38, 170, 171, 175, 174,  50,  51,  55,  54
 39, 171, 172, 176, 175,  51,  52,  56,  55
 40, 173, 174, 178, 177,  53,  54,  58,  57
 41, 174, 175, 179, 178,  54,  55,  59,  58
 42, 175, 176, 180, 179,  55,  56,  60,  59
 43, 177, 178, 182, 181,  57,  58,  62,  61
 44, 178, 179, 183, 182,  58,  59,  63,  62
 45, 179, 180, 184, 183,  59,  60,  64,  63
 46, 181, 182, 186, 185,  61,  62,  66,  65
 47, 182, 183, 187, 186,  62,  63,  67,  66
 48, 183, 184, 188, 187,  63,  64,  68,  67
 49, 185, 186, 190, 189,  65,  66,  70,  69
 50, 186, 187, 191, 190,  66,  67,  71,  70
 51, 187, 188, 192, 191,  67,  68,  72,  71
 52, 189, 190, 194, 193,  69,  70,  74,  73
 53, 190, 191, 195, 194,  70,  71,  75,  74
 54, 191, 192, 196, 195,  71,  72,  76,  75
 55, 193, 194, 198, 197,  73,  74,  78,  77
 56, 194, 195, 199, 198,  74,  75,  79,  78
 57, 195, 196, 200, 199,  75,  76,  80,  79
 58, 197, 198, 202, 201,  77,  78,  82,  81
 59, 198, 199, 203, 202,  78,  79,  83,  82
 60, 199, 200, 204, 203,  79,  80,  84,  83
 61, 201, 202, 206, 205,  81,  82,  86,  85
 62, 202, 203, 207, 206,  82,  83,  87,  86
 63, 203, 204, 208, 207,  83,  84,  88,  87
 64, 205, 206, 210, 209,  85,  86,  90,  89
 65, 206, 207, 211, 210,  86,  87,  91,  90
 66, 207, 208, 212, 211,  87,  88,  92,  91
 67, 209, 210, 214, 213,  89,  90,  94,  93
 68, 210, 211, 215, 214,  90,  91,  95,  94
 69, 211, 212, 216, 215,  91,  92,  96,  95
 70, 213, 214, 218, 217,  93,  94,  98,  97
 71, 214, 215, 219, 218,  94,  95,  99,  98
 72, 215, 216, 220, 219,  95,  96, 100,  99
 73, 217, 218, 222, 221,  97,  98, 102, 101
 74, 218, 219, 223, 222,  98,  99, 103, 102
 75, 219, 220, 224, 223,  99, 100, 104, 103
 76, 221, 222, 226, 225, 101, 102, 106, 105
 77, 222, 223, 227, 226, 102, 103, 107, 106
 78, 223, 224, 228, 227, 103, 104, 108, 107
 79, 225, 226, 230, 229, 105, 106, 110, 109
 80, 226, 227, 231, 230, 106, 107, 111, 110
 81, 227, 228, 232, 231, 107, 108, 112, 111
 82, 229, 230, 234, 233, 109, 110, 114, 113
 83, 230, 231, 235, 234, 110, 111, 115, 114
 84, 231, 232, 236, 235, 111, 112, 116, 115
 85, 233, 234, 238, 237, 113, 114, 118, 117
 86, 234, 235, 239, 238, 114, 115, 119, 118
 87, 235, 236, 240, 239, 115, 116, 120, 119
 88, 241, 242, 246, 245, 121, 122, 126, 125
 89, 242, 243, 247, 246, 122, 123, 127, 126
 90, 243, 244, 248, 247, 123, 124, 128, 127
 91, 245, 246, 250, 249, 125, 126, 130, 129
 92, 246, 247, 251, 250, 126, 127, 131, 130
 93, 247, 248, 252, 251, 127, 128, 132, 131
 94, 249, 250, 254, 253, 129, 130, 134, 133
 95, 250, 251, 255, 254, 130, 131, 135, 134
 96, 251, 252, 256, 255, 131, 132, 136, 135
 97, 253, 254, 258, 257, 133, 134, 138, 137
 98, 254, 255, 259, 258, 134, 135, 139, 138
 99, 255, 256, 260, 259, 135, 136, 140, 139
100, 257, 258, 262, 261, 137, 138, 142, 141
101, 258, 259, 263, 262, 138, 139, 143, 142
102, 259, 260, 264, 263, 139, 140, 144, 143
103, 261, 262, 266, 265, 141, 142, 146, 145
104, 262, 263, 267, 266, 142, 143, 147, 146
105, 263, 264, 268, 267, 143, 144, 148, 147
106, 265, 266, 270, 269, 145, 146, 150, 149
107, 266, 267, 271, 270, 146, 147, 151, 150
108, 267, 268, 272, 271, 147, 148, 152, 151
109, 269, 270, 274, 273, 149, 150, 154, 153
110, 270, 271, 275, 274, 150, 151, 155, 154
111, 271, 272, 276, 275, 151, 152, 156, 155
112, 273, 274, 278, 277, 153, 154, 158, 157
113, 274, 275, 279, 278, 154, 155, 159, 158
114, 275, 276, 280, 279, 155, 156, 160, 159
115, 277, 278, 282, 281, 157, 158, 162, 161
116, 278, 279, 283, 282, 158, 159, 163, 162
117, 279, 280, 284, 283, 159, 160, 164, 163
118, 281, 282, 286, 285, 161, 162, 166, 165
119, 282, 283, 287, 286, 162, 163, 167, 166
120, 283, 284, 288, 287, 163, 164, 168, 167
121, 285, 286, 290, 289, 165, 166, 170, 169
122, 286, 287, 291, 290, 166, 167, 171, 170
123, 287, 288, 292, 291, 167, 168, 172, 171
124, 289, 290, 294, 293, 169, 170, 174, 173
125, 290, 291, 295, 294, 170, 171, 175, 174
126, 291, 292, 296, 295, 171, 172, 176, 175
127, 293, 294, 298, 297, 173, 174, 178, 177
128, 294, 295, 299, 298, 174, 175, 179, 178
129, 295, 296, 300, 299, 175, 176, 180, 179
130, 297, 298, 302, 301, 177, 178, 182, 181
131, 298, 299, 303, 302, 178, 179, 183, 182
132, 299, 300, 304, 303, 179, 180, 184, 183
133, 301, 302, 306, 305, 181, 182, 186, 185
134, 302, 303, 307, 306, 182, 183, 187, 186
135, 303, 304, 308, 307, 183, 184, 188, 187
136, 305, 306, 310, 309, 185, 186, 190, 189
137, 306, 307, 311, 310, 186, 187, 191, 190
138, 307, 308, 312, 311, 187, 188, 192, 191
139, 309, 310, 314, 313, 189, 190, 194, 193
140, 310, 311, 315, 314, 190, 191, 195, 194
141, 311, 312, 316, 315, 191, 192, 196, 195
142, 313, 314, 318, 317, 193, 194, 198, 197
143, 314, 315, 319, 318, 194, 195, 199, 198
144, 315, 316, 320, 319, 195, 196, 200, 199
145, 317, 318, 322, 321, 197, 198, 202, 201
146, 318, 319, 323, 322, 198, 199, 203, 202
147, 319, 320, 324, 323, 199, 200, 204, 203
148, 321, 322, 326, 325, 201, 202, 206, 205
149, 322, 323, 327, 326, 202, 203, 207, 206
150, 323, 324, 328, 327, 203, 204, 208, 207
151, 325, 326, 330, 329, 205, 206, 210, 209
152, 326, 327, 331, 330, 206, 207, 211, 210
153, 327, 328, 332, 331, 207, 208, 212, 211
154, 329, 330, 334, 333, 209, 210, 214, 213
155, 330, 331, 335, 334, 210, 211, 215, 214
156, 331, 332, 336, 335, 211, 212, 216, 215
157, 333, 334, 338, 337, 213, 214, 218, 217
158, 334, 335, 339, 338, 214, 215, 219, 218
159, 335, 336, 340, 339, 215, 216, 220, 219
160, 337, 338, 342, 341, 217, 218, 222, 221
161, 338, 339, 343, 342, 218, 219, 223, 222
162, 339, 340, 344, 343, 219, 220, 224, 223
163, 341, 342, 346, 345, 221, 222, 226, 225
164, 342, 343, 347, 346, 222, 223, 227, 226
165, 343, 344, 348, 347, 223, 224, 228, 227
166, 345, 346, 350, 349, 225, 226, 230, 229
167, 346, 347, 351, 350, 226, 227, 231, 230
168, 347, 348, 352, 351, 227, 228, 232, 231
169, 349, 350, 354, 353, 229, 230, 234, 233
170, 350, 351, 355, 354, 230, 231, 235, 234
171, 351, 352, 356, 355, 231, 232, 236, 235
172, 353, 354, 358, 357, 233, 234, 238, 237
173, 354, 355, 359, 358, 234, 235, 239, 238
174, 355, 356, 360, 359, 235, 236, 240, 239
175, 361, 362, 366, 365, 241, 242, 246, 245
176, 362, 363, 367, 366, 242, 243, 247, 246
177, 363, 364, 368, 367, 243, 244, 248, 247
178, 365, 366, 370, 369, 245, 246, 250, 249
179, 366, 367, 371, 370, 246, 247, 251, 250
180, 367, 368, 372, 371, 247, 248, 252, 251
181, 369, 370, 374, 373, 249, 250, 254, 253
182, 370, 371, 375, 374, 250, 251, 255, 254
183, 371, 372, 376, 375, 251, 252, 256, 255
184, 373, 374, 378, 377, 253, 254, 258, 257
185, 374, 375, 379, 378, 254, 255, 259, 258
186, 375, 376, 380, 379, 255, 256, 260, 259
187, 377, 378, 382, 381, 257, 258, 262, 261
188, 378, 379, 383, 382, 258, 259, 263, 262
189, 379, 380, 384, 383, 259, 260, 264, 263
190, 381, 382, 386, 385, 261, 262, 266, 265
191, 382, 383, 387, 386, 262, 263, 267, 266
192, 383, 384, 388, 387, 263, 264, 268, 267
193, 385, 386, 390, 389, 265, 266, 270, 269
194, 386, 387, 391, 390, 266, 267, 271, 270
195, 387, 388, 392, 391, 267, 268, 272, 271
196, 389, 390, 394, 393, 269, 270, 274, 273
197, 390, 391, 395, 394, 270, 271, 275, 274
198, 391, 392, 396, 395, 271, 272, 276, 275
199, 393, 394, 398, 397, 273, 274, 278, 277
200, 394, 395, 399, 398, 274, 275, 279, 278
201, 395, 396, 400, 399, 275, 276, 280, 279
202, 397, 398, 402, 401, 277, 278, 282, 281
203, 398, 399, 403, 402, 278, 279, 283, 282
204, 399, 400, 404, 403, 279, 280, 284, 283
205, 401, 402, 406, 405, 281, 282, 286, 285
206, 402, 403, 407, 406, 282, 283, 287, 286
207, 403, 404, 408, 407, 283, 284, 288, 287
208, 405, 406, 410, 409, 285, 286, 290, 289
209, 406, 407, 411, 410, 286, 287, 291, 290
210, 407, 408, 412, 411, 287, 288, 292, 291
211, 409, 410, 414, 413, 289, 290, 294, 293
212, 410, 411, 415, 414, 290, 291, 295, 294
213, 411, 412, 416, 415, 291, 292, 296, 295
214, 413, 414, 418, 417, 293, 294, 298, 297
215, 414, 415, 419, 418, 294, 295, 299, 298
216, 415, 416, 420, 419, 295, 296, 300, 299
217, 417, 418, 422, 421, 297, 298, 302, 301
218, 418, 419, 423, 422, 298, 299, 303, 302
219, 419, 420, 424, 423, 299, 300, 304, 303
220, 421, 422, 426, 425, 301, 302, 306, 305
221, 422, 423, 427, 426, 302, 303, 307, 306
222, 423, 424, 428, 427, 303, 304, 308, 307
223, 425, 426, 430, 429, 305, 306, 310, 309
224, 426, 427, 431, 430, 306, 307, 311, 310
225, 427, 428, 432, 431, 307, 308, 312, 311
226, 429, 430, 434, 433, 309, 310, 314, 313
227, 430, 431, 435, 434, 310, 311, 315, 314
228, 431, 432, 436, 435, 311, 312, 316, 315
229, 433, 434, 438, 437, 313, 314, 318, 317
230, 434, 435, 439, 438, 314, 315, 319, 318
231, 435, 436, 440, 439, 315, 316, 320, 319
232, 437, 438, 442, 441, 317, 318, 322, 321
233, 438, 439, 443, 442, 318, 319, 323, 322
234, 439, 440, 444, 443, 319, 320, 324, 323
235, 441, 442, 446, 445, 321, 322, 326, 325
236, 442, 443, 447, 446, 322, 323, 327, 326
237, 443, 444, 448, 447, 323, 324, 328, 327
238, 445, 446, 450, 449, 325, 326, 330, 329
239, 446, 447, 451, 450, 326, 327, 331, 330
240, 447, 448, 452, 451, 327, 328, 332, 331
241, 449, 450, 454, 453, 329, 330, 334, 333
242, 450, 451, 455, 454, 330, 331, 335, 334
243, 451, 452, 456, 455, 331, 332, 336, 335
244, 453, 454, 458, 457, 333, 334, 338, 337
245, 454, 455, 459, 458, 334, 335, 339, 338
246, 455, 456, 460, 459, 335, 336, 340, 339
247, 457, 458, 462, 461, 337, 338, 342, 341
248, 458, 459, 463, 462, 338, 339, 343, 342
249, 459, 460, 464, 463, 339, 340, 344, 343
250, 461, 462, 466, 465, 341, 342, 346, 345
251, 462, 463, 467, 466, 342, 343, 347, 346
252, 463, 464, 468, 467, 343, 344, 348, 347
253, 465, 466, 470, 469, 345, 346, 350, 349
254, 466, 467, 471, 470, 346, 347, 351, 350
255, 467, 468, 472, 471, 347, 348, 352, 351
256, 469, 470, 474, 473, 349, 350, 354, 353
257, 470, 471, 475, 474, 350, 351, 355, 354
258, 471, 472, 476, 475, 351, 352, 356, 355
259, 473, 474, 478, 477, 353, 354, 358, 357
260, 474, 475, 479, 478, 354, 355, 359, 358
261, 475, 476, 480, 479, 355, 356, 360, 359
*Nset, nset=a, generate
   1,  480,    1
*Elset, elset=a, generate
   1,  261,    1
** Section: Section-1
*Solid Section, elset=a, material=Material-1
,
*End Part
**  
**
** ASSEMBLY
**
*Assembly, name=Assembly
**  
*Instance, name=Part-1-1, part=Part-1
*End Instance
**  
*Nset, nset=Set-1, instance=Part-1-1
   1,   2,   3,   4, 121, 122, 123, 124, 241, 242, 243, 244, 361, 362, 363, 364
*Elset, elset=Set-1, instance=Part-1-1
   1,   2,   3,  88,  89,  90, 175, 176, 177
*Elset, elset=_Surf-1_S5, internal, instance=Part-1-1
  85,  86,  87, 172, 173, 174, 259, 260, 261
*Surface, type=ELEMENT, name=Surf-1
_Surf-1_S5, S5
*End Assembly
** 
** MATERIALS
** 
*Material, name=Material-1
*Density
 7.8e-06,
*Elastic
210000., 0.3
** ----------------------------------------------------------------
** 
** STEP: Step-1
** 
*Step, name=Step-1, nlgeom=NO, perturbation
*Buckle
35, , 43, 30
** 
** BOUNDARY CONDITIONS
** 
** Name: BC-1 Type: Displacement/Rotation
*Boundary, op=NEW, load case=1
Set-1, 1, 1
Set-1, 2, 2
Set-1, 3, 3
Set-1, 4, 4
Set-1, 5, 5
Set-1, 6, 6
*Boundary, op=NEW, load case=2
Set-1, 1, 1
Set-1, 2, 2
Set-1, 3, 3
Set-1, 4, 4
Set-1, 5, 5
Set-1, 6, 6
** 
** LOADS
** 
** Name: Load-1   Type: Pressure
*Dsload
Surf-1, P, 400.
** 
** OUTPUT REQUESTS
** 
*Restart, write, frequency=0
** 
** FIELD OUTPUT: F-Output-3
** 
*Output, field
*Node Output
CF, RF, RM, RT, TF, U, UR, UT
VF
*Element Output, directions=YES
E, EE, EEQUT, ER, ESF1, FVE, IE, LE, NE, NFORC, NFORCSO, PE, PEEQ, PEEQMAX, PEEQT, PEMAG
PEQC, SALPHA, SE, SEE, SEP, SEPE, SF, SPE, SQEQ, TE, TEEQ, TEVOL, THE, VE, VEEQ
*Contact Output
SJD, SJDA, SJDE, SJDEA, SJDET, SJDETA, SJDR, SJDRA, SJDRT, SJDRTA, SJDT, SJDTA
** 
** FIELD OUTPUT: F-Output-2
** 
*Node Output, variable=PRESELECT
*Element Output, directions=YES
E, MISES, S
** 
** FIELD OUTPUT: F-Output-1
** 
*Output, field, variable=PRESELECT
*End Step
